NAME : ftv47.2342.tour
COMMENT : Cost = 484_2342
COMMENT : Found by LKH [Keld Helsgaun] Tue Nov  7 23:42:07 2017
TYPE : TOUR
DIMENSION : 52
TOUR_SECTION
1
8
24
13
33
7
11
50
29
4
25
5
30
31
32
6
9
12
49
19
18
14
35
47
37
36
15
16
17
46
21
39
51
10
34
28
3
42
44
23
43
52
26
38
40
20
45
22
41
48
27
2
-1
EOF
